short instances (for exacts)/A-n14-k2.vrp
NAME : A-n14-k2
COMMENT : (Augerat et al modificado, Min no of trucks: 2, Optimal value: ???)
TYPE : CVRP
DIMENSION : 14
EDGE_WEIGHT_TYPE : EUC_2D 
CAPACITY : 100
NODE_COORD_SECTION 
 1 82 76
 2 58 30
 3 5 10
 4 98 52
 5 1 65
 6 88 51
 7 19 32
 8 50 93
 9 42 9
 10 9 97
 11 80 55
 12 20 70
 13 85 60
 14 98 5
DEMAND_SECTION 
1 0 
2 12 
3 14 
4 21 
5 22 
6 18 
7 1 
8 8 
9 8 
10 24 
11 2  
12 2 
13 14 
14 9 
DEPOT_SECTION 
 1  
 -1  
EOF 
