solutions/A/A-n14-k2
8 10 12 5 7 3 9 2 14  (100)
4 6 11 13  (55)
Cost 444.451

